50

100 24 176
99 39 255
99 6 180
99 5 283
99 11 193
98 9 326
98 36 171
94 34 267
93 25 283
92 36 301
92 20 254
89 44 155
89 34 305
89 18 333
84 13 212
83 27 325
80 3 225
80 25 174
78 31 257
77 10 206
75 11 354
74 5 353
74 19 158
70 16 202
70 14 357
68 12 288
68 12 345
66 14 233
63 32 245
62 10 328
60 4 323
59 29 360
58 24 313
58 2 177
58 19 187
55 14 231
54 4 306
53 13 179
52 23 154
49 21 317
42 8 251
41 7 190
36 10 199
35 7 359
35 6 294
31 15 337
26 10 333
23 3 228
22 4 332
20 9 322
